448,639
524,891
649,613
681,556
609,458
533,383
622,397
723,364
736,235
802,318
505,164
425,323
810,805
898,833
1108,545
947,599
545,673
450,860
745,605
829,554
814,338
852,351
1117,89
1051,286
1023,517
892,697
718,169
630,81
621,406
629,478
998,842
822,600
291,406
361,243
672,434
